db/data/409026992165141220512464115911341523637.z3.out
-------------------
2500.259343566
